ISTART = 0
ICHARG = 1
ADDGRID = True
EDIFF = 1e-06
ENCUT = 500.0
IBRION = -1
ISMEAR = 0
LCHARG = True
LREAL = False
LWAVE = False
NPAR = 2
PREC = Accurate
SIGMA = 0.05
