SYSTEM = Test
PREC = Accurate
ENCUT = 520
EDIFF = 1E-6
NSW = 0
IBRION = -1
ISIF = 2
ISMEAR = 0
SIGMA = 0.05
LREAL = Auto
